SCIP Status        : solving was interrupted [time limit reached]
Total Time         :    3600.01
  solving          :    3600.00
  presolving       :       0.39 (included in solving)
  reading          :       0.01
  copying          :       1.37 (56 #copies) (minimal 0.00, maximal 0.05, average 0.02)
Original Problem   :
  Problem name     : bbbenchmark/pw05_100.1.cut
  Variables        : 101 (100 binary, 0 integer, 0 implicit integer, 1 continuous)
  Constraints      : 1 initial, 1 maximal
  Objective        : minimize, 1 non-zeros (abs.min = 1, abs.max = 1)
Presolved Problem  :
  Problem name     : t_bbbenchmark/pw05_100.1.cut
  Variables        : 1757 (100 binary, 0 integer, 1640 implicit integer, 17 continuous)
  Constraints      : 1689 initial, 4471 maximal
  Objective        : minimize, 1 non-zeros (abs.min = 1, abs.max = 1)
  Nonzeros         : 8427 constraint, 202 clique table
Presolvers         :   ExecTime  SetupTime  Calls  FixedVars   AggrVars   ChgTypes  ChgBounds   AddHoles    DelCons    AddCons   ChgSides   ChgCoefs
  boundshift       :       0.00       0.00      0          0          0          0          0          0          0          0          0          0
  convertinttobin  :       0.00       0.00      0          0          0          0          0          0          0          0          0          0
  domcol           :       0.00       0.00      1          0          0          0          0          0          0          0          0          0
  dualagg          :       0.00       0.00      0          0          0          0          0          0          0          0          0          0
  dualcomp         :       0.00       0.00      1          0          0          0          0          0          0          0          0          0
  dualinfer        :       0.00       0.00      0          0          0          0          0          0          0          0          0          0
  dualsparsify     :       0.00       0.00      1          0          0          0          0          0          0          0          0          0
  gateextraction   :       0.00       0.00      0          0          0          0          0          0          0          0          0          0
  implics          :       0.00       0.00      2          0          0          0          0          0          0          0          0          0
  inttobinary      :       0.00       0.00      0          0          0          0          0          0          0          0          0          0
  qpkktref         :       0.00       0.00      0          0          0          0          0          0          0          0          0          0
  redvub           :       0.00       0.00      0          0          0          0          0          0          0          0          0          0
  sparsify         :       0.00       0.00      1          0          0          0          0          0          0          0          0          0
  stuffing         :       0.00       0.00      0          0          0          0          0          0          0          0          0          0
  trivial          :       0.00       0.00      4          0          0          0          0          0          0          0          0          0
  tworowbnd        :       0.00       0.00      0          0          0          0          0          0          0          0          0          0
  dualfix          :       0.00       0.00      4          0          0          0          0          0          0          0          0          0
  genvbounds       :       0.00       0.00      0          0          0          0          0          0          0          0          0          0
  probing          :       0.27       0.00      1          0          0          0          0          0          0          0          0          0
  pseudoobj        :       0.00       0.00      1          0          0          0          1          0          0          0          0          0
  symmetry         :       0.00       0.00      0          0          0          0          0          0          0          0          0          0
  vbounds          :       0.00       0.00      1          0          0          0          0          0          0          0          0          0
  varbound         :       0.00       0.00      2          0          0          0          0          0          0          0          0          0
  and              :       0.00       0.00      2          0          0          0          0          0          0          0          0          0
  linear           :       0.01       0.00      2          0          0          0          0          0          0          0          0          0
  logicor          :       0.00       0.00      0          0          0          0          0          0          0          0          0          0
  bounddisjunction :       0.00       0.00      0          0          0          0          0          0          0          0          0          0
  nonlinear        :       0.10       0.01      5          0          0          0          1          0          0       1688          0          0
  benders          :       0.00       0.00      0          0          0          0          0          0          0          0          0          0
  components       :       0.01       0.00      1          0          0          0          0          0          0          0          0          0
  root node        :          -          -      -          0          -          -         13          -          -          -          -          -
Constraints        :     Number  MaxNumber  #Separate #Propagate    #EnfoLP    #EnfoRelax  #EnfoPS    #Check   #ResProp    Cutoffs    DomReds       Cuts    Applied      Conss   Children
  benderslp        :          0          0          0          0      86725          0          0       1141          0          0          0          0          0          0          0
  integral         :          0          0          0          0      86725          0          0       1141          0          0        319          0          0        141     173212
  varbound         :         16         16        220     512949          0          0          0         73          0          0      66946          0          0          0          0
  and              :       1640       1640     100189     530723          0          0          0         73     205342          7     466753        397        383          0          0
  linear           :         33+        49        220     530786          0          0          0         71       1384         31     375668          0          0          0          0
  logicor          :          0+      2148          0      90379          0          0          0          0         18        169         36          0          0          0          0
  bounddisjunction :          0+       635          0      57715          0          0          0          0          4          4          5          0          0          0          0
  benders          :          0          0          0          0          0          0          0         22          0          0          0          0          0          0          0
  countsols        :          0          0          0          0          0          0          0         22          0          0          0          0          0          0          0
  components       :          0          0          0          0          0          0          0          0          0          0          0          0          0          0          0
Constraint Timings :  TotalTime  SetupTime   Separate  Propagate     EnfoLP     EnfoPS     EnfoRelax   Check    ResProp    SB-Prop
  benderslp        :       0.13       0.00       0.00       0.00       0.13       0.00       0.00       0.00       0.00       0.00
  integral         :      63.16       0.00       0.00       0.00      63.14       0.00       0.00       0.02       0.00       0.00
  varbound         :       1.23       0.00       0.00       1.22       0.00       0.00       0.00       0.01       0.00       0.00
  and              :      75.32       0.00      54.88      19.93       0.00       0.00       0.00       0.00       0.21       0.30
  linear           :       5.80       0.00       0.08       5.69       0.00       0.00       0.00       0.00       0.01       0.02
  logicor          :       5.05       0.00       0.00       5.05       0.00       0.00       0.00       0.00       0.00       0.00
  bounddisjunction :       1.52       0.00       0.00       1.52       0.00       0.00       0.00       0.00       0.00       0.00
  benders          :       0.00       0.00       0.00       0.00       0.00       0.00       0.00       0.00       0.00       0.00
  countsols        :       0.00       0.00       0.00       0.00       0.00       0.00       0.00       0.00       0.00       0.00
  components       :       0.22       0.00       0.00       0.21       0.00       0.00       0.00       0.00       0.00       0.01
Propagators        : #Propagate   #ResProp    Cutoffs    DomReds
  dualfix          :          4          0          0          0
  genvbounds       :          0          0          0          0
  nlobbt           :          0          0          0          0
  obbt             :          0          0          0          0
  probing          :          0          0          0          0
  pseudoobj        :     401451          1          0        529
  redcost          :     197890          0          0     133845
  rootredcost      :          7          0          0          0
  symmetry         :          0          0          0          0
  vbounds          :      99774          0          0          0
Propagator Timings :  TotalTime  SetupTime   Presolve  Propagate    ResProp    SB-Prop
  dualfix          :       0.00       0.00       0.00       0.00       0.00       0.00
  genvbounds       :       0.41       0.00       0.00       0.41       0.00       0.00
  nlobbt           :       0.00       0.00       0.00       0.00       0.00       0.00
  obbt             :       0.00       0.00       0.00       0.00       0.00       0.00
  probing          :       0.27       0.00       0.27       0.00       0.00       0.00
  pseudoobj        :       0.86       0.00       0.00       0.86       0.00       0.00
  redcost          :      12.67       0.00       0.00      12.67       0.00       0.00
  rootredcost      :       0.62       0.00       0.00       0.62       0.00       0.00
  symmetry         :       0.34       0.00       0.00       0.34       0.00       0.00
  vbounds          :       0.39       0.00       0.00       0.39       0.00       0.00
Conflict Analysis  :       Time      Calls    Success    DomReds  Conflicts   Literals    Reconvs ReconvLits   Dualrays   Nonzeros   LP Iters   (pool size: [10000,10000])
  propagation      :       0.01        183        130          -        235       77.0          0        0.0          -          -          -
  infeasible LP    :       0.20        119        119          -       4056      127.7          0        0.0        335      153.0          0
  bound exceed. LP :      12.18       2341       2247          -      59334      107.4          0        0.0          0        0.0      30642
  strong branching :       0.00          0          0          -          0        0.0          0        0.0          -          -          0
  pseudo solution  :       0.00          0          0          -          0        0.0          0        0.0          -          -          -
  applied globally :       0.20          -          -          0      12868      119.3          -          -        335          -          -
  applied locally  :          -          -          -          0          0        0.0          -          -          0          -          -
Separators         :   ExecTime  SetupTime      Calls  RootCalls    Cutoffs    DomReds  FoundCuts ViaPoolAdd  DirectAdd    Applied ViaPoolApp  DirectApp      Conss
  cut pool         :       6.49          -      15509        247          -          -      36109    1665127          -          -          -          -          -    (maximal pool size:       4117)
  aggregation      :     498.26       0.00       6354        220          0          0          6          2          0          2          2          0          0
  > cmir           :          -          -          -          -          -          -          -          2          0          2          2          0          -
  > flowcover      :          -          -          -          -          -          -          -          0          0          0          0          0          -
  > knapsackcover  :          -          -          -          -          -          -          -          0          0          0          0          0          -
  cgmip            :       0.00       0.00          0          0          0          0          0          0          0          0          0          0          0
  clique           :       0.00       0.00        220        220          0          0          0          0          0          0          0          0          0
  closecuts        :       0.00       0.00          0          0          0          0          0          0          0          0          0          0          0
  convexproj       :       0.00       0.00          0          0          0          0          0          0          0          0          0          0          0
  disjunctive      :       0.00       0.00          0          0          0          0          0          0          0          0          0          0          0
  eccuts           :       0.00       0.00          0          0          0          0          0          0          0          0          0          0          0
  gauge            :       0.00       0.00          0          0          0          0          0          0          0          0          0          0          0
  gomory           :       0.00       0.00          0          0          0          0          0          0          0          0          0          0          0
  > gomorymi       :          -          -          -          -          -          -          -          0          0          0          0          0          -
  > strongcg       :          -          -          -          -          -          -          -          0          0          0          0          0          -
  impliedbounds    :       0.44       0.00       6354        220          0          0          0          0          0          0          0          0          0
  interlattice     :       0.00       0.00          0          0          0          0          0          0          0          0          0          0          0
  interminor       :       0.00       0.00          0          0          0          0          0          0          0          0          0          0          0
  intersub         :       4.12       0.00        173        173          0          0        173          0        173        173          0        173          0
  intobj           :       0.00       0.00          0          0          0          0          0          0          0          0          0          0          0
  mcf              :       0.01       0.00          1          1          0          0          0          0          0          0          0          0          0
  minor            :       0.01       0.00          0          0          0          0          0          0          0          0          0          0          0
  mixing           :       0.04       0.00       6354        220          0          0          0          0          0          0          0          0          0
  oddcycle         :       0.00       0.00          0          0          0          0          0          0          0          0          0          0          0
  rapidlearning    :       0.01       0.00          0          0          0          0          0          0          0          0          0          0          0
  rlt              :       0.00       0.00         10         10          0          0          0          0          0          0          0          0          0
  zerohalf         :      42.58       0.00       4658         20          0          0      36103    1665125          0     132406     132406          0          0
Cutselectors       :   ExecTime  SetupTime      Calls  RootCalls   Selected     Forced   Filtered  RootSelec   RootForc   RootFilt 
  hybrid           :       1.72       0.00       8596        220     132964          0    1532733        379          0          2
Pricers            :   ExecTime  SetupTime      Calls       Vars
  problem variables:       0.00          -          0          0
Branching Rules    :   ExecTime  SetupTime   BranchLP  BranchExt   BranchPS    Cutoffs    DomReds       Cuts      Conss   Children
  allfullstrong    :       0.00       0.00          0          0          0          0          0          0          0          0
  cloud            :       0.00       0.00          0          0          0          0          0          0          0          0
  distribution     :       0.00       0.00          0          0          0          0          0          0          0          0
  fullstrong       :       0.00       0.00          0          0          0          0          0          0          0          0
  inference        :       0.00       0.00          0          0          0          0          0          0          0          0
  leastinf         :       0.00       0.00          0          0          0          0          0          0          0          0
  lookahead        :       0.00       0.00          0          0          0          0          0          0          0          0
  mostinf          :       0.00       0.00          0          0          0          0          0          0          0          0
  multaggr         :       0.00       0.00          0          0          0          0          0          0          0          0
  nodereopt        :       0.00       0.00          0          0          0          0          0          0          0          0
  pscost           :       0.00       0.00          0          0          0          0          0          0          0          0
  random           :       0.00       0.00          0          0          0          0          0          0          0          0
  relpscost        :      62.83       0.00      86725          0          0          0        319          0        141     173212
  vanillafullstrong:       0.00       0.00          0          0          0          0          0          0          0          0
Primal Heuristics  :   ExecTime  SetupTime      Calls      Found       Best
  LP solutions     :       0.00          -          -          0          0
  relax solutions  :       0.00          -          -          0          0
  pseudo solutions :       0.00          -          -          0          0
  strong branching :       0.01          -          -          0          0
  actconsdiving    :       0.00       0.00          0          0          0
  adaptivediving   :       3.89       0.00         21          0          0
  alns             :       3.87       0.00         25          6          6
  bound            :       0.00       0.00          0          0          0
  clique           :       0.00       0.00          1          0          0
  coefdiving       :       0.00       0.00          0          0          0
  completesol      :       0.00       0.00          0          0          0
  conflictdiving   :     109.17       0.00        588          0          0
  crossover        :       0.48       0.00          4          1          1
  dins             :       0.00       0.00          0          0          0
  distributiondivin:      49.14       0.00        160          0          0
  dps              :       0.00       0.00          0          0          0
  dualval          :       0.00       0.00          0          0          0
  farkasdiving     :       0.01       0.00          0          0          0
  feaspump         :       1.69       0.00          1          1          1
  fixandinfer      :       0.00       0.00          0          0          0
  fracdiving       :      42.98       0.00        199          0          0
  gins             :       0.18       0.00          0          0          0
  guideddiving     :      39.70       0.00        194          0          0
  indicator        :       0.13       0.00          0          0          0
  indicatordiving  :       0.00       0.00          0          0          0
  intdiving        :       0.00       0.00          0          0          0
  intshifting      :       0.40       0.00         23          0          0
  linesearchdiving :      36.74       0.00        202          0          0
  localbranching   :       0.00       0.00          0          0          0
  locks            :       0.02       0.00          1          0          0
  lpface           :       0.08       0.00          0          0          0
  mpec             :     384.76       0.00         11          0          0
  multistart       :       0.00       0.00          0          0          0
  mutation         :       0.00       0.00          0          0          0
  nlpdiving        :      70.34       0.00          2          0          0
  objpscostdiving  :      45.42       0.00         42          2          1
  octane           :       0.00       0.00          0          0          0
  ofins            :       0.13       0.00          0          0          0
  oneopt           :       0.08       0.00         12          0          0
  padm             :       0.00       0.00          0          0          0
  proximity        :       0.00       0.00          0          0          0
  pscostdiving     :      40.92       0.00        170          1          1
  randrounding     :       1.36       0.00       1117          0          0
  rens             :       0.00       0.00          0          0          0
  reoptsols        :       0.00       0.00          0          0          0
  repair           :       0.00       0.00          0          0          0
  rins             :       3.19       0.00         28          1          1
  rootsoldiving    :      16.43       0.00         29          0          0
  rounding         :       1.37       0.00       4117          0          0
  shiftandpropagate:       0.00       0.00          0          0          0
  shifting         :      31.08       0.00       5860          4          3
  simplerounding   :       0.12       0.00          0          0          0
  subnlp           :     144.90       0.00          0          0          0
  trivial          :       0.00       0.00          2          2          2
  trivialnegation  :       0.00       0.00          0          0          0
  trustregion      :       0.00       0.00          0          0          0
  trysol           :       0.16       0.00          0          0          0
  twoopt           :       0.00       0.00          0          0          0
  undercover       :       0.53       0.00          1          1          1
  vbounds          :       0.00       0.00          0          0          0
  veclendiving     :      37.38       0.00        216          0          0
  zeroobj          :       0.00       0.00          0          0          0
  zirounding       :       0.54       0.00       1000          0          0
  other solutions  :          -          -          -          0          -
Diving (single)    :      Calls      Nodes   LP Iters Backtracks  Conflicts   MinDepth   MaxDepth   AvgDepth  RoundSols  NLeafSols  MinSolDpt  MaxSolDpt  AvgSolDpt
  actconsdiving    :          0          -          -          -          -          -          -          -          -          -          -          -          -
  coefdiving       :          0          -          -          -          -          -          -          -          -          -          -          -          -
  conflictdiving   :        588      24628     644556        494      32236         55         84       64.3          0          -          -          -          -
  distributiondivin:        160       6610     225240        178       3612         52         68       60.4          0          -          -          -          -
  farkasdiving     :          0          -          -          -          -          -          -          -          -          -          -          -          -
  fracdiving       :        199      28329     223190         13        353         62        316      163.3          0          -          -          -          -
  guideddiving     :        194      21872     223086          7        354         61        279      133.5          0          -          -          -          -
  indicatordiving  :          0          -          -          -          -          -          -          -          -          -          -          -          -
  linesearchdiving :        202      11247     223081         57       8122         57         98       76.1          0          -          -          -          -
  pscostdiving     :        170       7143     237497        176       4296         52         78       62.2          0          1         78         78       78.0
  veclendiving     :        216       9595     222220        125      12771         55         85       64.9          0          -          -          -          -
Diving (adaptive)  :      Calls      Nodes   LP Iters Backtracks  Conflicts   MinDepth   MaxDepth   AvgDepth  RoundSols  NLeafSols  MinSolDpt  MaxSolDpt  AvgSolDpt
  actconsdiving    :          1         47       1342          1         31         60         60       60.0          0          -          -          -          -
  coefdiving       :          7        285       6556          2        331         55         80       64.1          0          -          -          -          -
  conflictdiving   :          0          -          -          -          -          -          -          -          -          -          -          -          -
  distributiondivin:          0          -          -          -          -          -          -          -          -          -          -          -          -
  farkasdiving     :          0          -          -          -          -          -          -          -          -          -          -          -          -
  fracdiving       :          2        119       1548          0         11         62        125       93.5          0          -          -          -          -
  guideddiving     :          3        290       3504          0         21         76        161      116.7          0          -          -          -          -
  indicatordiving  :          0          -          -          -          -          -          -          -          -          -          -          -          -
  linesearchdiving :          7        409       8253          1        236         71         82       75.6          0          -          -          -          -
  pscostdiving     :          0          -          -          -          -          -          -          -          -          -          -          -          -
  veclendiving     :          1          4          4          0          8         62         62       62.0          0          -          -          -          -
Neighborhoods      :      Calls  SetupTime  SolveTime SolveNodes       Sols       Best       Exp3  EpsGreedy        UCB TgtFixRate  Opt  Inf Node Stal  Sol  Usr Othr Actv
  rens             :          1       0.00       0.00          0          0          0    0.00000   -1.00000    0.07220      0.900    0    0    0    0    0    0    1    1
  rins             :          2       0.05       0.07         84          0          0    0.00000   -1.00000    0.47196      0.550    0    2    0    0    0    0    0    1
  mutation         :          3       0.10       0.21        102          0          0    0.00000   -1.00000    0.42926      0.662    0    2    0    1    0    0    0    1
  localbranching   :          2       0.06       0.08         72          0          0    0.00000   -1.00000    0.45714      0.850    0    1    0    1    0    0    0    1
  crossover        :          6       0.27       1.75       1065          2          2    0.00000   -1.00000    0.46207      0.506    1    3    0    2    0    0    0    1
  proximity        :          5       0.23       0.51        446          1          1    0.00000   -1.00000    0.47308      0.879    1    1    0    3    0    0    0    1
  zeroobjective    :          3       0.13       0.09        148          0          0    0.00000   -1.00000    0.46441      0.900    0    1    0    2    0    0    0    1
  dins             :          3       0.07       0.09         85          3          3    0.00000   -1.00000    0.44928      0.812    0    0    0    1    1    0    1    1
  trustregion      :          0       0.00       0.00          0          0          0    0.00000   -1.00000    1.00000      0.900    0    0    0    0    0    0    0    0
Expressions        :   #IntEval  IntEvalTi   #RevProp  RevPropTi    DomReds    Cutoffs  #Estimate  EstimTime  Branching  #Simplify SimplifyTi Simplified
  pow              :          0       0.00          0       0.00          0          0          0       0.00          0          0       0.00          0
  prod             :       9900       0.00          0       0.00          0          0          0       0.00          0       6590       0.00          0
  sum              :          8       0.00          2       0.00          0          0          0       0.00          0          3       0.02          2
  var              :       6080       0.00          0       0.00          0          0          0       0.00          0      15139       0.01          0
  varidx           :          0       0.00          0       0.00          0          0          0       0.00          0          0       0.00          0
LP                 :       Time      Calls Iterations  Iter/call   Iter/sec  Time-0-It Calls-0-It    ItLimit
  primal LP        :     184.54      10130          0       0.00       0.00     184.48      10130
  dual LP          :    1457.05     166772    4216528      27.94    2893.88       8.73      15880
  lex dual LP      :       0.00          0          0       0.00          -
  barrier LP       :       0.00          0          0       0.00          -       0.00          0
  resolve instable :       0.00          0          0       0.00          -
  diving/probing LP:     370.71       8381    2264223     270.16    6107.80
  strong branching :      37.07        928     150181     161.83    4051.28          -          -        158
    (at root node) :          -         21      18623     886.81          -
  conflict analysis:       6.74       3171      30642       9.66    4546.29
NLP relaxation     :
  solve time       :      69.87 (6 calls)
  convexity        :  nonconvex (49 linear rows, 0 convex ineq., 0 nonconvex ineq., 1640 nonlinear eq. or two-sided ineq.)
NLP Solvers        :  #Problems  ProblemTi    #Solves  SolveTime      #Iter  Time/Iter      #Okay #TimeLimit #IterLimit #LObjLimit #Interrupt  #NumError #EvalError  #OutOfMem #LicenseEr #OtherTerm   #GlobOpt    #LocOpt  #Feasible #LocInfeas #GlobInfea #Unbounded   #Unknown
  ipopt            :         12       6.35         33     459.36       1897       0.24         32          0          1          0          0          0          0          0          0          0          0         13          0         18          0          0          2
B&B Tree           :
  number of runs   :          1
  nodes            :     142219 (86606 internal, 55613 leaves)
  feasible leaves  :          0
  infeas. leaves   :         33
  objective leaves :      55579
  nodes (total)    :     142219 (86606 internal, 55613 leaves)
  nodes left       :      30815
  max depth        :         68
  max depth (total):         68
  backtracks       :      34123 (24.0%)
  early backtracks :          0 (0.0%)
  nodes exc. ref.  :          0 (0.0%)
  delayed cutoffs  :         11
  repropagations   :         99 (463 domain reductions, 0 cutoffs)
  avg switch length:       7.33
  switching time   :     220.54
Estim. Tree Size   :     284796
Estimation Tree    : 173213 nodes (142398 visited, 86606 internal, 55792 leaves, 30815 open), weight: 0.0000 completed 0.0964
Estimations        :      estim      value      trend resolution     smooth
  wbe              : 100443214008792096          -          -          -          -
  tree-profile     :         -1          -          -          -          -
  gap              :    5074071    0.67246    0.00001         64    5279907
  tree-weight      :     284796    0.00000    0.00000         64     284484
  leaf-frequency   :     284796    0.39180   -0.00000         64     449051
  ssg              :    8785300    0.84781   -0.00001         64    8730752
  open-nodes       :     284796 30815.00000   21.08962         64     284484
Root Node          :
  First LP value   : -5.47070707070708e+00
  First LP Iters   :       1636 (11685.71 Iter/sec)
  First LP Time    :       0.14
  Final Dual Bound : -5.15031381195937e+00
  Final Root Iters :      18320
  Root LP Estimate : +4.66455410780020e-01
Solution           :
  Solutions found  :         19 (17 improvements)
  First Solution   : +1.00000000000000e+05   (in run 1, after 0 nodes, 0.05 seconds, depth 0, found by <trivial>)
  Gap First Sol.   :   infinite
  Gap Last Sol.    :      58.75 %
  Primal Bound     : -3.14868686868687e+00   (in run 1, after 14267 nodes, 972.25 seconds, depth 58, found by <crossover>)
  Dual Bound       : -4.68235925482238e+00
  Gap              :      48.71 %
Integrals          :      Total       Avg%
  primal-dual      :  130848.64      36.35
  primal-ref       :          -          - (not evaluated)
  dual-ref         :          -          - (not evaluated)
